p cnf 12 50 
-8 -11 3 0
-10 -5 9 0
10 -12 -7 0
-4 9 10 0
12 -2 -4 0
-11 9 3 0
12 1 -5 0
5 2 -12 0
-7 -9 -2 0
6 12 -1 0
-7 -1 3 0
-5 -1 -10 0
-4 6 5 0
12 -3 4 0
8 -1 10 0
1 -3 -8 0
4 -10 -7 0
-12 -10 -6 0
10 11 8 0
9 -7 12 0
1 6 10 0
-7 1 -8 0
-4 -1 -9 0
3 -10 -2 0
3 5 11 0
2 7 -11 0
-3 -7 -2 0
8 -10 -2 0
11 5 9 0
12 6 3 0
-2 11 -1 0
3 4 -10 0
5 -8 -11 0
-8 -1 10 0
3 -9 -11 0
5 -3 -12 0
4 8 2 0
-7 -12 6 0
-3 -8 10 0
-1 11 6 0
-6 -11 4 0
12 -4 11 0
11 2 -5 0
-11 4 -3 0
5 11 2 0
12 7 -10 0
8 3 -4 0
3 5 6 0
2 10 7 0
-10 -5 6 0
